N = 8;
H = 5;
T = 2;

avail = array3d(1..N, 1..H, 1..T, [8, 1, 6, 8, 6, 5, 9, 10, 10, 8, 4, 7, 6, 3, 1, 8, 0, 7, 4, 4, 3, 10, 9, 2, 3, 1, 4, 8, 9, 0, 3, 8, 1, 2, 0, 6, 6, 4, 8, 8, 6, 8, 4, 7, 7, 9, 8, 10, 2, 7, 6, 6, 0, 0, 2, 4, 0, 5, 10, 2, 5, 6, 0, 0, 5, 1, 4, 1, 3, 2, 4, 9, 8, 7, 9, 8, 2, 0, 5, 4]);

r = array2d(1..H, 1..T, [4, 2, 2, 1, 0, 2, 4, 4, 3, 1]);
